NAME 
ROWS
 N  OBJ
 G  R0      
 G  R1      
 G  R2      
 G  R3      
 G  R4      
 G  R5      
 G  R6      
 G  R7      
 G  R8      
 G  R9      
 G  R10     
 G  R11     
 G  R12     
 G  R13     
 G  R14     
 G  R15     
 G  R16     
 G  R17     
 G  R18     
 G  R19     
 G  R20     
 G  R21     
 G  R22     
 G  R23     
 G  R24     
 G  R25     
 G  R26     
COLUMNS
    x0        OBJ       1
    x0        R0        1
    x0        R13       1
    x0        R14       1
    x0        R16       1
    x0        R17       1
    x0        R22       1
    x0        R23       1
    x0        R25       1
    x0        R26       1
    x1        OBJ       1
    x1        R1        1
    x1        R12       1
    x1        R14       1
    x1        R15       1
    x1        R17       1
    x1        R21       1
    x1        R23       1
    x1        R24       1
    x1        R26       1
    x2        OBJ       1
    x2        R2        1
    x2        R12       1
    x2        R13       1
    x2        R15       1
    x2        R16       1
    x2        R21       1
    x2        R22       1
    x2        R24       1
    x2        R25       1
    x3        OBJ       1
    x3        R3        1
    x3        R10       1
    x3        R11       1
    x3        R16       1
    x3        R17       1
    x3        R19       1
    x3        R20       1
    x3        R25       1
    x3        R26       1
    x4        OBJ       1
    x4        R4        1
    x4        R9        1
    x4        R11       1
    x4        R15       1
    x4        R17       1
    x4        R18       1
    x4        R20       1
    x4        R24       1
    x4        R26       1
    x5        OBJ       1
    x5        R5        1
    x5        R9        1
    x5        R10       1
    x5        R15       1
    x5        R16       1
    x5        R18       1
    x5        R19       1
    x5        R24       1
    x5        R25       1
    x6        OBJ       1
    x6        R6        1
    x6        R10       1
    x6        R11       1
    x6        R13       1
    x6        R14       1
    x6        R19       1
    x6        R20       1
    x6        R22       1
    x6        R23       1
    x7        OBJ       1
    x7        R7        1
    x7        R9        1
    x7        R11       1
    x7        R12       1
    x7        R14       1
    x7        R18       1
    x7        R20       1
    x7        R21       1
    x7        R23       1
    x8        OBJ       1
    x8        R8        1
    x8        R9        1
    x8        R10       1
    x8        R12       1
    x8        R13       1
    x8        R18       1
    x8        R19       1
    x8        R21       1
    x8        R22       1
    x9        OBJ       1
    x9        R4        1
    x9        R5        1
    x9        R7        1
    x9        R8        1
    x9        R9        1
    x9        R22       1
    x9        R23       1
    x9        R25       1
    x9        R26       1
    x10       OBJ       1
    x10       R3        1
    x10       R5        1
    x10       R6        1
    x10       R8        1
    x10       R10       1
    x10       R21       1
    x10       R23       1
    x10       R24       1
    x10       R26       1
    x11       OBJ       1
    x11       R3        1
    x11       R4        1
    x11       R6        1
    x11       R7        1
    x11       R11       1
    x11       R21       1
    x11       R22       1
    x11       R24       1
    x11       R25       1
    x12       OBJ       1
    x12       R1        1
    x12       R2        1
    x12       R7        1
    x12       R8        1
    x12       R12       1
    x12       R19       1
    x12       R20       1
    x12       R25       1
    x12       R26       1
    x13       OBJ       1
    x13       R0        1
    x13       R2        1
    x13       R6        1
    x13       R8        1
    x13       R13       1
    x13       R18       1
    x13       R20       1
    x13       R24       1
    x13       R26       1
    x14       OBJ       1
    x14       R0        1
    x14       R1        1
    x14       R6        1
    x14       R7        1
    x14       R14       1
    x14       R18       1
    x14       R19       1
    x14       R24       1
    x14       R25       1
    x15       OBJ       1
    x15       R1        1
    x15       R2        1
    x15       R4        1
    x15       R5        1
    x15       R15       1
    x15       R19       1
    x15       R20       1
    x15       R22       1
    x15       R23       1
    x16       OBJ       1
    x16       R0        1
    x16       R2        1
    x16       R3        1
    x16       R5        1
    x16       R16       1
    x16       R18       1
    x16       R20       1
    x16       R21       1
    x16       R23       1
    x17       OBJ       1
    x17       R0        1
    x17       R1        1
    x17       R3        1
    x17       R4        1
    x17       R17       1
    x17       R18       1
    x17       R19       1
    x17       R21       1
    x17       R22       1
    x18       OBJ       1
    x18       R4        1
    x18       R5        1
    x18       R7        1
    x18       R8        1
    x18       R13       1
    x18       R14       1
    x18       R16       1
    x18       R17       1
    x18       R18       1
    x19       OBJ       1
    x19       R3        1
    x19       R5        1
    x19       R6        1
    x19       R8        1
    x19       R12       1
    x19       R14       1
    x19       R15       1
    x19       R17       1
    x19       R19       1
    x20       OBJ       1
    x20       R3        1
    x20       R4        1
    x20       R6        1
    x20       R7        1
    x20       R12       1
    x20       R13       1
    x20       R15       1
    x20       R16       1
    x20       R20       1
    x21       OBJ       1
    x21       R1        1
    x21       R2        1
    x21       R7        1
    x21       R8        1
    x21       R10       1
    x21       R11       1
    x21       R16       1
    x21       R17       1
    x21       R21       1
    x22       OBJ       1
    x22       R0        1
    x22       R2        1
    x22       R6        1
    x22       R8        1
    x22       R9        1
    x22       R11       1
    x22       R15       1
    x22       R17       1
    x22       R22       1
    x23       OBJ       1
    x23       R0        1
    x23       R1        1
    x23       R6        1
    x23       R7        1
    x23       R9        1
    x23       R10       1
    x23       R15       1
    x23       R16       1
    x23       R23       1
    x24       OBJ       1
    x24       R1        1
    x24       R2        1
    x24       R4        1
    x24       R5        1
    x24       R10       1
    x24       R11       1
    x24       R13       1
    x24       R14       1
    x24       R24       1
    x25       OBJ       1
    x25       R0        1
    x25       R2        1
    x25       R3        1
    x25       R5        1
    x25       R9        1
    x25       R11       1
    x25       R12       1
    x25       R14       1
    x25       R25       1
    x26       OBJ       1
    x26       R0        1
    x26       R1        1
    x26       R3        1
    x26       R4        1
    x26       R9        1
    x26       R10       1
    x26       R12       1
    x26       R13       1
    x26       R26       1
RHS
    RHS1      R0        1
    RHS1      R1        1
    RHS1      R2        1
    RHS1      R3        1
    RHS1      R4        1
    RHS1      R5        1
    RHS1      R6        1
    RHS1      R7        1
    RHS1      R8        1
    RHS1      R9        1
    RHS1      R10       1
    RHS1      R11       1
    RHS1      R12       1
    RHS1      R13       1
    RHS1      R14       1
    RHS1      R15       1
    RHS1      R16       1
    RHS1      R17       1
    RHS1      R18       1
    RHS1      R19       1
    RHS1      R20       1
    RHS1      R21       1
    RHS1      R22       1
    RHS1      R23       1
    RHS1      R24       1
    RHS1      R25       1
    RHS1      R26       1
BOUNDS
 UP BND1      x0        1
 UP BND1      x1        1
 UP BND1      x2        1
 UP BND1      x3        1
 UP BND1      x4        1
 UP BND1      x5        1
 UP BND1      x6        1
 UP BND1      x7        1
 UP BND1      x8        1
 UP BND1      x9        1
 UP BND1      x10       1
 UP BND1      x11       1
 UP BND1      x12       1
 UP BND1      x13       1
 UP BND1      x14       1
 UP BND1      x15       1
 UP BND1      x16       1
 UP BND1      x17       1
 UP BND1      x18       1
 UP BND1      x19       1
 UP BND1      x20       1
 UP BND1      x21       1
 UP BND1      x22       1
 UP BND1      x23       1
 UP BND1      x24       1
 UP BND1      x25       1
 UP BND1      x26       1
ENDATA
